instances/knapsack/discrete_knapsack_uncertainty/knapsack_150_17.lp
\ Model knapsack_150_17
\ LP format - for model browsing. Use MPS format to capture full model detail.
\ Signature: 0x1d3d114bfbe69093
Minimize
  - 77 x[0] - 6 x[1] - 95 x[2] - 91 x[3] - 13 x[4] - 92 x[5] - 17 x[6]
   - 31 x[7] - 30 x[8] - 2 x[9] - 10 x[10] - 94 x[11] - 86 x[12] - 45 x[13]
   - 94 x[14] - 31 x[15] - 93 x[16] - 93 x[17] - 70 x[18] - 97 x[19]
   - 73 x[20] - 2 x[21] - 23 x[22] - 47 x[23] - 72 x[24] - 82 x[25]
   - 47 x[26] - 47 x[27] - 89 x[28] - 56 x[29] - 96 x[30] - 39 x[31]
   - 19 x[32] - 22 x[33] - 79 x[34] - 80 x[35] - 92 x[36] - 66 x[37]
   - 78 x[38] - 71 x[39] - 55 x[40] - 49 x[41] - 25 x[42] - 62 x[43]
   - 18 x[44] - 42 x[45] - 8 x[46] - 76 x[47] - 60 x[48] - 53 x[49]
   - 42 x[50] - 30 x[51] - 18 x[52] - 100 x[53] - 91 x[54] - 25 x[55]
   - 70 x[56] - 99 x[57] - 7 x[58] - 90 x[59] - 47 x[60] - 69 x[61]
   - 81 x[62] - 41 x[63] - 14 x[64] - 8 x[65] - 44 x[66] - 77 x[67]
   - 68 x[68] - 69 x[69] - 100 x[70] - 50 x[71] - 48 x[72] - 29 x[73]
   - 74 x[74] - 33 x[75] - 17 x[76] - 68 x[77] - 55 x[78] - 55 x[79]
   - 6 x[80] - 93 x[81] - 77 x[82] - 85 x[83] - 100 x[84] - 12 x[85]
   - 33 x[86] - 38 x[87] - 67 x[88] - 66 x[89] - 81 x[90] - 53 x[91]
   - 41 x[92] - 44 x[93] - 63 x[94] - 26 x[95] - 92 x[96] - 7 x[97]
   - 40 x[98] - 20 x[99] - 32 x[100] - 97 x[101] - 78 x[102] - 33 x[103]
   - 50 x[104] - 18 x[105] - 69 x[106] - 68 x[107] - 61 x[108] - 40 x[109]
   - 33 x[110] - 69 x[111] - 49 x[112] - 27 x[113] - 17 x[114] - 32 x[115]
   - 34 x[116] - 84 x[117] - 81 x[118] - 22 x[119] - 21 x[120] - 30 x[121]
   - 45 x[122] - 82 x[123] - 35 x[124] - 92 x[125] - 48 x[126] - 21 x[127]
   - 55 x[128] - 32 x[129] - 62 x[130] - 6 x[131] - 23 x[132] - 58 x[133]
   - 61 x[134] - 11 x[135] - 20 x[136] - x[137] - 74 x[138] - 9 x[139]
   - 29 x[140] - 64 x[141] - 5 x[142] - 15 x[143] - 75 x[144] - 2 x[145]
   - 80 x[146] - 50 x[147] - 36 x[148] - 78 x[149]
Subject To
 primal_upper: 51 x[0] + 47 x[1] + 53 x[2] + 22 x[3] + 63 x[4] + 37 x[5]
   + 100 x[6] + 47 x[7] + 76 x[8] + 21 x[9] + 63 x[10] + 78 x[11]
   + 23 x[12] + 27 x[13] + 88 x[14] + 28 x[15] + 72 x[16] + 27 x[17]
   + 72 x[18] + 41 x[19] + 76 x[20] + 27 x[21] + 35 x[22] + 62 x[23]
   + 72 x[24] + 35 x[25] + 77 x[26] + 63 x[27] + 89 x[28] + 42 x[29]
   + 89 x[30] + 19 x[31] + 11 x[32] + 16 x[33] + 39 x[34] + 40 x[35]
   + 71 x[36] + 12 x[37] + 71 x[38] + 2 x[39] + 38 x[40] + 65 x[41]
   + 89 x[42] + 37 x[43] + 42 x[44] + 50 x[45] + 49 x[46] + 9 x[47]
   + 66 x[48] + 99 x[49] + 78 x[50] + 67 x[51] + 56 x[52] + 95 x[53]
   + 24 x[54] + 7 x[55] + 88 x[56] + 14 x[57] + 91 x[58] + x[59]
   + 100 x[60] + 70 x[61] + 71 x[62] + 90 x[63] + 23 x[64] + 15 x[65]
   + 68 x[66] + 30 x[67] + 71 x[68] + 29 x[69] + 29 x[70] + 57 x[71]
   + 73 x[72] + 90 x[73] + 7 x[74] + 68 x[75] + 2 x[76] + 6 x[77]
   + 24 x[78] + 62 x[79] + 53 x[80] + 9 x[81] + 86 x[82] + 17 x[83]
   + 69 x[84] + 25 x[85] + 99 x[86] + 91 x[87] + 57 x[88] + 78 x[89]
   + 52 x[90] + 76 x[91] + 40 x[92] + 67 x[93] + 63 x[94] + 32 x[95]
   + 28 x[96] + 64 x[97] + 3 x[98] + 99 x[99] + 64 x[100] + 35 x[101]
   + 61 x[102] + 99 x[103] + 64 x[104] + x[105] + 58 x[106] + 70 x[107]
   + 2 x[108] + 8 x[109] + 74 x[110] + 94 x[111] + 92 x[112] + 4 x[113]
   + 32 x[114] + 74 x[115] + 66 x[116] + 68 x[117] + 88 x[118] + 12 x[119]
   + 31 x[120] + 48 x[121] + 19 x[122] + 58 x[123] + 84 x[124] + 38 x[125]
   + 39 x[126] + 31 x[127] + 82 x[128] + 46 x[129] + 17 x[130] + 76 x[131]
   + 6 x[132] + 91 x[133] + 24 x[134] + 77 x[135] + 68 x[136] + 18 x[137]
   + 93 x[138] + 3 x[139] + 34 x[140] + 28 x[141] + 58 x[142] + 98 x[143]
   + 48 x[144] + 85 x[145] + 85 x[146] + 18 x[147] + 88 x[148] + 61 x[149]
   + 5.1 r[0] + 4.7 r[1] + 5.3 r[2] + 2.2 r[3] + 6.3 r[4] + 3.7 r[5]
   + 10 r[6] + 4.7 r[7] + 7.6 r[8] + 2.1 r[9] + 6.3 r[10] + 7.8 r[11]
   + 2.3 r[12] + 2.7 r[13] + 8.8 r[14] + 2.8 r[15] + 7.2 r[16] + 2.7 r[17]
   + 7.2 r[18] + 4.1 r[19] + 7.6 r[20] + 2.7 r[21] + 3.5 r[22] + 6.2 r[23]
   + 7.2 r[24] + 3.5 r[25] + 7.7 r[26] + 6.3 r[27] + 8.9 r[28] + 4.2 r[29]
   + 8.9 r[30] + 1.9 r[31] + 1.1 r[32] + 1.6 r[33] + 3.9 r[34] + 4 r[35]
   + 7.1 r[36] + 1.2 r[37] + 7.1 r[38] + 0.2 r[39] + 3.8 r[40] + 6.5 r[41]
   + 8.9 r[42] + 3.7 r[43] + 4.2 r[44] + 5 r[45] + 4.9 r[46] + 0.9 r[47]
   + 6.6 r[48] + 9.9 r[49] + 7.8 r[50] + 6.7 r[51] + 5.6 r[52] + 9.5 r[53]
   + 2.4 r[54] + 0.7 r[55] + 8.8 r[56] + 1.4 r[57] + 9.1 r[58] + 0.1 r[59]
   + 10 r[60] + 7 r[61] + 7.1 r[62] + 9 r[63] + 2.3 r[64] + 1.5 r[65]
   + 6.8 r[66] + 3 r[67] + 7.1 r[68] + 2.9 r[69] + 2.9 r[70] + 5.7 r[71]
   + 7.3 r[72] + 9 r[73] + 0.7 r[74] + 6.8 r[75] + 0.2 r[76] + 0.6 r[77]
   + 2.4 r[78] + 6.2 r[79] + 5.3 r[80] + 0.9 r[81] + 8.6 r[82] + 1.7 r[83]
   + 6.9 r[84] + 2.5 r[85] + 9.9 r[86] + 9.1 r[87] + 5.7 r[88] + 7.8 r[89]
   + 5.2 r[90] + 7.6 r[91] + 4 r[92] + 6.7 r[93] + 6.3 r[94] + 3.2 r[95]
   + 2.8 r[96] + 6.4 r[97] + 0.3 r[98] + 9.9 r[99] + 6.4 r[100]
   + 3.5 r[101] + 6.1 r[102] + 9.9 r[103] + 6.4 r[104] + 0.1 r[105]
   + 5.8 r[106] + 7 r[107] + 0.2 r[108] + 0.8 r[109] + 7.4 r[110]
   + 9.4 r[111] + 9.2 r[112] + 0.4 r[113] + 3.2 r[114] + 7.4 r[115]
   + 6.6 r[116] + 6.8 r[117] + 8.8 r[118] + 1.2 r[119] + 3.1 r[120]
   + 4.8 r[121] + 1.9 r[122] + 5.8 r[123] + 8.4 r[124] + 3.8 r[125]
   + 3.9 r[126] + 3.1 r[127] + 8.2 r[128] + 4.6 r[129] + 1.7 r[130]
   + 7.6 r[131] + 0.6 r[132] + 9.1 r[133] + 2.4 r[134] + 7.7 r[135]
   + 6.8 r[136] + 1.8 r[137] + 9.3 r[138] + 0.3 r[139] + 3.4 r[140]
   + 2.8 r[141] + 5.8 r[142] + 9.8 r[143] + 4.8 r[144] + 8.5 r[145]
   + 8.5 r[146] + 1.8 r[147] + 8.8 r[148] + 6.1 r[149] <= 739
 primal_lower: 1.361923286292689 x[0] + 4.543274491839775 x[1]
   + 4.350082574307801 x[2] + 3.109337597129742 x[3]
   + 3.661923241938593 x[4] + 3.696534395414851 x[5]
   + 3.866795635066994 x[6] + 4.917986265516008 x[7]
   + 1.326198897614661 x[8] + 1.593697802794539 x[9]
   + 3.437894652613109 x[10] + 4.183818812288425 x[11]
   + 0.8331462369300406 x[12] + 5.07173601986324 x[13]
   + 2.316093338759332 x[14] + 3.433983810504819 x[15]
   + 4.166712534288641 x[16] + 4.052752042190396 x[17]
   + 2.646177462926107 x[18] + 1.374466274163792 x[19]
   + 2.482538642554512 x[20] + 3.158072093742753 x[21]
   + 2.939417158119276 x[22] + 0.9539974977414275 x[23]
   + 4.241468639038012 x[24] + 2.845379094574219 x[25]
   + 0.4552774025472552 x[26] + 3.263426320529715 x[27]
   + 5.024315089942153 x[28] + 4.237550692052348 x[29]
   + 5.009778442611194 x[30] + 0.3730863227796011 x[31]
   + 4.137879933129374 x[32] + 1.893544043707416 x[33]
   + 2.703527637025113 x[34] + 4.002987411357233 x[35]
   + 1.005996856019473 x[36] + 2.926716190558228 x[37]
   + 2.48689648730178 x[38] + 3.811439213258723 x[39]
   + 4.444710819643531 x[40] + 2.786615151690854 x[41]
   + 0.5768792362463893 x[42] + 4.492033085739218 x[43]
   + 2.370748854965091 x[44] + 1.754949663962301 x[45]
   + 3.28910898279812 x[46] + 3.151266150694274 x[47]
   + 0.7970272408522843 x[48] + 3.96130450648637 x[49]
   + 2.447010048215891 x[50] + 1.514745616315125 x[51]
   + 2.092872803835401 x[52] + 2.970985135591856 x[53]
   + 3.840061865121702 x[54] + 2.647604238341952 x[55]
   + 0.9105926510968532 x[56] + 0.9084921607904428 x[57]
   + 0.1376940627864474 x[58] + 1.67525292430932 x[59]
   + 3.928211830677509 x[60] + 4.713610736359014 x[61]
   + 1.102462118721651 x[62] + 2.281135949693663 x[63]
   + 5.001075222719355 x[64] + 2.838358658727735 x[65]
   + 5.029788887480187 x[66] + 2.960904464449488 x[67]
   + 2.949542757150708 x[68] + 4.755940332299138 x[69]
   + 1.978176325549378 x[70] + 1.087599331876301 x[71]
   + 4.956582976761091 x[72] + 4.053448572726349 x[73]
   + 0.3162883224550981 x[74] + 0.0546964076722587 x[75]
   + 1.119328709865443 x[76] + 1.666063721782847 x[77]
   + 4.209599420483719 x[78] + 4.841324691226755 x[79]
   + 2.369758466128349 x[80] + 1.854056470471654 x[81]
   + 2.918810193614922 x[82] + 4.203540090548752 x[83]
   + 3.447478195258561 x[84] + 3.800403365970786 x[85]
   + 2.961097320169564 x[86] + 0.2411272722866821 x[87]
   + 2.90762178206498 x[88] + 1.969087692018428 x[89]
   + 2.796547117995547 x[90] + 4.782505766754132 x[91]
   + 0.2529688394157223 x[92] + 4.747555882516977 x[93]
   + 4.187694520585841 x[94] + 0.7689410994152521 x[95]
   + 4.053157827282992 x[96] + 0.7470494595043456 x[97]
   + 0.9847806282371695 x[98] + 4.444335067776515 x[99]
   + 0.5178207729912117 x[100] + 2.676738310524145 x[101]
   + 1.744056629750651 x[102] + 2.294518239940377 x[103]
   + 3.649114634812225 x[104] + 5.102554928007049 x[105]
   + 3.631932965406263 x[106] + 3.010010924983522 x[107]
   + 3.063181908425978 x[108] + 1.880103498723681 x[109]
   + 4.902223597353026 x[110] + 2.300581898068391 x[111]
   + 2.921191151566824 x[112] + 3.033605986894347 x[113]
   + 1.854881355563535 x[114] + 1.297728949440281 x[115]
   + 4.66648711360166 x[116] + 0.496736524353836 x[117]
   + 2.827469396931436 x[118] + 4.349484955619455 x[119]
   + 4.577649942425507 x[120] + 2.612719909033617 x[121]
   + 4.530533135783656 x[122] + 1.19930697447153 x[123]
   + 4.222646402798537 x[124] + 0.2539571153072508 x[125]
   + 0.742422679686454 x[126] + 4.904866067852517 x[127]
   + 2.659254354313182 x[128] + 2.98444033517144 x[129]
   + 4.504530007865585 x[130] + 0.0192401016379053 x[131]
   + 3.355845207753173 x[132] + 1.378946263765435 x[133]
   + 3.987649155349815 x[134] + 3.980010373532023 x[135]
   + 0.6105020604162565 x[136] + 3.714587380133379 x[137]
   + 3.185598105679925 x[138] + 5.149031404949135 x[139]
   + 1.416815799066824 x[140] + 4.988770783859406 x[141]
   + 3.554428541919875 x[142] + 2.717656085236781 x[143]
   + 3.090394141290691 x[144] + 2.920495296790059 x[145]
   + 2.563937219751556 x[146] + 2.058130533535401 x[147]
   + 2.855696990908335 x[148] + 3.219610634325232 x[149] + 32 u[0]
   + 84 u[1] + 42 u[2] + 87 u[3] + 44 u[4] + 82 u[5] + 77 u[6] + 52 u[7]
   + 77 u[8] + 98 u[9] + 84 u[10] + 75 u[11] + 20 u[12] + 44 u[13]
   + 53 u[14] + 81 u[15] + 13 u[16] + 84 u[17] + 57 u[18] + 86 u[19]
   + 41 u[20] + 96 u[21] + 96 u[22] + 75 u[23] + 37 u[24] + 52 u[25]
   + 10 u[26] + 56 u[27] + 78 u[28] + 87 u[29] + 10 u[30] + 76 u[31]
   + 8 u[32] + 65 u[33] + 84 u[34] + 81 u[35] + 20 u[36] + 89 u[37]
   + 32 u[38] + 15 u[39] + 87 u[40] + 42 u[41] + 54 u[42] + 14 u[43]
   + 87 u[44] + 47 u[45] + 14 u[46] + 58 u[47] + 39 u[48] + 72 u[49]
   + 79 u[50] + 48 u[51] + 65 u[52] + 52 u[53] + 9 u[54] + 92 u[55]
   + 33 u[56] + 23 u[57] + 80 u[58] + 70 u[59] + 57 u[60] + 63 u[61]
   + 52 u[62] + 99 u[63] + 76 u[64] + 68 u[65] + 13 u[66] + 3 u[67]
   + 36 u[68] + 66 u[69] + 70 u[70] + 50 u[71] + 18 u[72] + 31 u[73]
   + 40 u[74] + 21 u[75] + 15 u[76] + 31 u[77] + 77 u[78] + 99 u[79]
   + 34 u[80] + 82 u[81] + 87 u[82] + 98 u[83] + 50 u[84] + 62 u[85]
   + 100 u[86] + 24 u[87] + 38 u[88] + 67 u[89] + 13 u[90] + 93 u[91]
   + 41 u[92] + 76 u[93] + 100 u[94] + 17 u[95] + 85 u[96] + 17 u[97]
   + 20 u[98] + 8 u[99] + 85 u[100] + 84 u[101] + 38 u[102] + 68 u[103]
   + 61 u[104] + 2 u[105] + 11 u[106] + 51 u[107] + 23 u[108] + 97 u[109]
   + 67 u[110] + 3 u[111] + 77 u[112] + 73 u[113] + 33 u[114] + 35 u[115]
   + 71 u[116] + 97 u[117] + 73 u[118] + 9 u[119] + 68 u[120] + 49 u[121]
   + 36 u[122] + 35 u[123] + 37 u[124] + 19 u[125] + 88 u[126] + 76 u[127]
   + 11 u[128] + 95 u[129] + 10 u[130] + 89 u[131] + 11 u[132] + 24 u[133]
   + 17 u[134] + 70 u[135] + 93 u[136] + 63 u[137] + 94 u[138] + 100 u[139]
   + 95 u[140] + 61 u[141] + 79 u[142] + 59 u[143] + 13 u[144] + 70 u[145]
   + 10 u[146] + 27 u[147] + 33 u[148] + 54 u[149] <= 39074
 mccormick1[0]: - u[0] + r[0] <= 0
 mccormick1[1]: - u[1] + r[1] <= 0
 mccormick1[2]: - u[2] + r[2] <= 0
 mccormick1[3]: - u[3] + r[3] <= 0
 mccormick1[4]: - u[4] + r[4] <= 0
 mccormick1[5]: - u[5] + r[5] <= 0
 mccormick1[6]: - u[6] + r[6] <= 0
 mccormick1[7]: - u[7] + r[7] <= 0
 mccormick1[8]: - u[8] + r[8] <= 0
 mccormick1[9]: - u[9] + r[9] <= 0
 mccormick1[10]: - u[10] + r[10] <= 0
 mccormick1[11]: - u[11] + r[11] <= 0
 mccormick1[12]: - u[12] + r[12] <= 0
 mccormick1[13]: - u[13] + r[13] <= 0
 mccormick1[14]: - u[14] + r[14] <= 0
 mccormick1[15]: - u[15] + r[15] <= 0
 mccormick1[16]: - u[16] + r[16] <= 0
 mccormick1[17]: - u[17] + r[17] <= 0
 mccormick1[18]: - u[18] + r[18] <= 0
 mccormick1[19]: - u[19] + r[19] <= 0
 mccormick1[20]: - u[20] + r[20] <= 0
 mccormick1[21]: - u[21] + r[21] <= 0
 mccormick1[22]: - u[22] + r[22] <= 0
 mccormick1[23]: - u[23] + r[23] <= 0
 mccormick1[24]: - u[24] + r[24] <= 0
 mccormick1[25]: - u[25] + r[25] <= 0
 mccormick1[26]: - u[26] + r[26] <= 0
 mccormick1[27]: - u[27] + r[27] <= 0
 mccormick1[28]: - u[28] + r[28] <= 0
 mccormick1[29]: - u[29] + r[29] <= 0
 mccormick1[30]: - u[30] + r[30] <= 0
 mccormick1[31]: - u[31] + r[31] <= 0
 mccormick1[32]: - u[32] + r[32] <= 0
 mccormick1[33]: - u[33] + r[33] <= 0
 mccormick1[34]: - u[34] + r[34] <= 0
 mccormick1[35]: - u[35] + r[35] <= 0
 mccormick1[36]: - u[36] + r[36] <= 0
 mccormick1[37]: - u[37] + r[37] <= 0
 mccormick1[38]: - u[38] + r[38] <= 0
 mccormick1[39]: - u[39] + r[39] <= 0
 mccormick1[40]: - u[40] + r[40] <= 0
 mccormick1[41]: - u[41] + r[41] <= 0
 mccormick1[42]: - u[42] + r[42] <= 0
 mccormick1[43]: - u[43] + r[43] <= 0
 mccormick1[44]: - u[44] + r[44] <= 0
 mccormick1[45]: - u[45] + r[45] <= 0
 mccormick1[46]: - u[46] + r[46] <= 0
 mccormick1[47]: - u[47] + r[47] <= 0
 mccormick1[48]: - u[48] + r[48] <= 0
 mccormick1[49]: - u[49] + r[49] <= 0
 mccormick1[50]: - u[50] + r[50] <= 0
 mccormick1[51]: - u[51] + r[51] <= 0
 mccormick1[52]: - u[52] + r[52] <= 0
 mccormick1[53]: - u[53] + r[53] <= 0
 mccormick1[54]: - u[54] + r[54] <= 0
 mccormick1[55]: - u[55] + r[55] <= 0
 mccormick1[56]: - u[56] + r[56] <= 0
 mccormick1[57]: - u[57] + r[57] <= 0
 mccormick1[58]: - u[58] + r[58] <= 0
 mccormick1[59]: - u[59] + r[59] <= 0
 mccormick1[60]: - u[60] + r[60] <= 0
 mccormick1[61]: - u[61] + r[61] <= 0
 mccormick1[62]: - u[62] + r[62] <= 0
 mccormick1[63]: - u[63] + r[63] <= 0
 mccormick1[64]: - u[64] + r[64] <= 0
 mccormick1[65]: - u[65] + r[65] <= 0
 mccormick1[66]: - u[66] + r[66] <= 0
 mccormick1[67]: - u[67] + r[67] <= 0
 mccormick1[68]: - u[68] + r[68] <= 0
 mccormick1[69]: - u[69] + r[69] <= 0
 mccormick1[70]: - u[70] + r[70] <= 0
 mccormick1[71]: - u[71] + r[71] <= 0
 mccormick1[72]: - u[72] + r[72] <= 0
 mccormick1[73]: - u[73] + r[73] <= 0
 mccormick1[74]: - u[74] + r[74] <= 0
 mccormick1[75]: - u[75] + r[75] <= 0
 mccormick1[76]: - u[76] + r[76] <= 0
 mccormick1[77]: - u[77] + r[77] <= 0
 mccormick1[78]: - u[78] + r[78] <= 0
 mccormick1[79]: - u[79] + r[79] <= 0
 mccormick1[80]: - u[80] + r[80] <= 0
 mccormick1[81]: - u[81] + r[81] <= 0
 mccormick1[82]: - u[82] + r[82] <= 0
 mccormick1[83]: - u[83] + r[83] <= 0
 mccormick1[84]: - u[84] + r[84] <= 0
 mccormick1[85]: - u[85] + r[85] <= 0
 mccormick1[86]: - u[86] + r[86] <= 0
 mccormick1[87]: - u[87] + r[87] <= 0
 mccormick1[88]: - u[88] + r[88] <= 0
 mccormick1[89]: - u[89] + r[89] <= 0
 mccormick1[90]: - u[90] + r[90] <= 0
 mccormick1[91]: - u[91] + r[91] <= 0
 mccormick1[92]: - u[92] + r[92] <= 0
 mccormick1[93]: - u[93] + r[93] <= 0
 mccormick1[94]: - u[94] + r[94] <= 0
 mccormick1[95]: - u[95] + r[95] <= 0
 mccormick1[96]: - u[96] + r[96] <= 0
 mccormick1[97]: - u[97] + r[97] <= 0
 mccormick1[98]: - u[98] + r[98] <= 0
 mccormick1[99]: - u[99] + r[99] <= 0
 mccormick1[100]: - u[100] + r[100] <= 0
 mccormick1[101]: - u[101] + r[101] <= 0
 mccormick1[102]: - u[102] + r[102] <= 0
 mccormick1[103]: - u[103] + r[103] <= 0
 mccormick1[104]: - u[104] + r[104] <= 0
 mccormick1[105]: - u[105] + r[105] <= 0
 mccormick1[106]: - u[106] + r[106] <= 0
 mccormick1[107]: - u[107] + r[107] <= 0
 mccormick1[108]: - u[108] + r[108] <= 0
 mccormick1[109]: - u[109] + r[109] <= 0
 mccormick1[110]: - u[110] + r[110] <= 0
 mccormick1[111]: - u[111] + r[111] <= 0
 mccormick1[112]: - u[112] + r[112] <= 0
 mccormick1[113]: - u[113] + r[113] <= 0
 mccormick1[114]: - u[114] + r[114] <= 0
 mccormick1[115]: - u[115] + r[115] <= 0
 mccormick1[116]: - u[116] + r[116] <= 0
 mccormick1[117]: - u[117] + r[117] <= 0
 mccormick1[118]: - u[118] + r[118] <= 0
 mccormick1[119]: - u[119] + r[119] <= 0
 mccormick1[120]: - u[120] + r[120] <= 0
 mccormick1[121]: - u[121] + r[121] <= 0
 mccormick1[122]: - u[122] + r[122] <= 0
 mccormick1[123]: - u[123] + r[123] <= 0
 mccormick1[124]: - u[124] + r[124] <= 0
 mccormick1[125]: - u[125] + r[125] <= 0
 mccormick1[126]: - u[126] + r[126] <= 0
 mccormick1[127]: - u[127] + r[127] <= 0
 mccormick1[128]: - u[128] + r[128] <= 0
 mccormick1[129]: - u[129] + r[129] <= 0
 mccormick1[130]: - u[130] + r[130] <= 0
 mccormick1[131]: - u[131] + r[131] <= 0
 mccormick1[132]: - u[132] + r[132] <= 0
 mccormick1[133]: - u[133] + r[133] <= 0
 mccormick1[134]: - u[134] + r[134] <= 0
 mccormick1[135]: - u[135] + r[135] <= 0
 mccormick1[136]: - u[136] + r[136] <= 0
 mccormick1[137]: - u[137] + r[137] <= 0
 mccormick1[138]: - u[138] + r[138] <= 0
 mccormick1[139]: - u[139] + r[139] <= 0
 mccormick1[140]: - u[140] + r[140] <= 0
 mccormick1[141]: - u[141] + r[141] <= 0
 mccormick1[142]: - u[142] + r[142] <= 0
 mccormick1[143]: - u[143] + r[143] <= 0
 mccormick1[144]: - u[144] + r[144] <= 0
 mccormick1[145]: - u[145] + r[145] <= 0
 mccormick1[146]: - u[146] + r[146] <= 0
 mccormick1[147]: - u[147] + r[147] <= 0
 mccormick1[148]: - u[148] + r[148] <= 0
 mccormick1[149]: - u[149] + r[149] <= 0
 mccormick2[0]: - x[0] + r[0] <= 0
 mccormick2[1]: - x[1] + r[1] <= 0
 mccormick2[2]: - x[2] + r[2] <= 0
 mccormick2[3]: - x[3] + r[3] <= 0
 mccormick2[4]: - x[4] + r[4] <= 0
 mccormick2[5]: - x[5] + r[5] <= 0
 mccormick2[6]: - x[6] + r[6] <= 0
 mccormick2[7]: - x[7] + r[7] <= 0
 mccormick2[8]: - x[8] + r[8] <= 0
 mccormick2[9]: - x[9] + r[9] <= 0
 mccormick2[10]: - x[10] + r[10] <= 0
 mccormick2[11]: - x[11] + r[11] <= 0
 mccormick2[12]: - x[12] + r[12] <= 0
 mccormick2[13]: - x[13] + r[13] <= 0
 mccormick2[14]: - x[14] + r[14] <= 0
 mccormick2[15]: - x[15] + r[15] <= 0
 mccormick2[16]: - x[16] + r[16] <= 0
 mccormick2[17]: - x[17] + r[17] <= 0
 mccormick2[18]: - x[18] + r[18] <= 0
 mccormick2[19]: - x[19] + r[19] <= 0
 mccormick2[20]: - x[20] + r[20] <= 0
 mccormick2[21]: - x[21] + r[21] <= 0
 mccormick2[22]: - x[22] + r[22] <= 0
 mccormick2[23]: - x[23] + r[23] <= 0
 mccormick2[24]: - x[24] + r[24] <= 0
 mccormick2[25]: - x[25] + r[25] <= 0
 mccormick2[26]: - x[26] + r[26] <= 0
 mccormick2[27]: - x[27] + r[27] <= 0
 mccormick2[28]: - x[28] + r[28] <= 0
 mccormick2[29]: - x[29] + r[29] <= 0
 mccormick2[30]: - x[30] + r[30] <= 0
 mccormick2[31]: - x[31] + r[31] <= 0
 mccormick2[32]: - x[32] + r[32] <= 0
 mccormick2[33]: - x[33] + r[33] <= 0
 mccormick2[34]: - x[34] + r[34] <= 0
 mccormick2[35]: - x[35] + r[35] <= 0
 mccormick2[36]: - x[36] + r[36] <= 0
 mccormick2[37]: - x[37] + r[37] <= 0
 mccormick2[38]: - x[38] + r[38] <= 0
 mccormick2[39]: - x[39] + r[39] <= 0
 mccormick2[40]: - x[40] + r[40] <= 0
 mccormick2[41]: - x[41] + r[41] <= 0
 mccormick2[42]: - x[42] + r[42] <= 0
 mccormick2[43]: - x[43] + r[43] <= 0
 mccormick2[44]: - x[44] + r[44] <= 0
 mccormick2[45]: - x[45] + r[45] <= 0
 mccormick2[46]: - x[46] + r[46] <= 0
 mccormick2[47]: - x[47] + r[47] <= 0
 mccormick2[48]: - x[48] + r[48] <= 0
 mccormick2[49]: - x[49] + r[49] <= 0
 mccormick2[50]: - x[50] + r[50] <= 0
 mccormick2[51]: - x[51] + r[51] <= 0
 mccormick2[52]: - x[52] + r[52] <= 0
 mccormick2[53]: - x[53] + r[53] <= 0
 mccormick2[54]: - x[54] + r[54] <= 0
 mccormick2[55]: - x[55] + r[55] <= 0
 mccormick2[56]: - x[56] + r[56] <= 0
 mccormick2[57]: - x[57] + r[57] <= 0
 mccormick2[58]: - x[58] + r[58] <= 0
 mccormick2[59]: - x[59] + r[59] <= 0
 mccormick2[60]: - x[60] + r[60] <= 0
 mccormick2[61]: - x[61] + r[61] <= 0
 mccormick2[62]: - x[62] + r[62] <= 0
 mccormick2[63]: - x[63] + r[63] <= 0
 mccormick2[64]: - x[64] + r[64] <= 0
 mccormick2[65]: - x[65] + r[65] <= 0
 mccormick2[66]: - x[66] + r[66] <= 0
 mccormick2[67]: - x[67] + r[67] <= 0
 mccormick2[68]: - x[68] + r[68] <= 0
 mccormick2[69]: - x[69] + r[69] <= 0
 mccormick2[70]: - x[70] + r[70] <= 0
 mccormick2[71]: - x[71] + r[71] <= 0
 mccormick2[72]: - x[72] + r[72] <= 0
 mccormick2[73]: - x[73] + r[73] <= 0
 mccormick2[74]: - x[74] + r[74] <= 0
 mccormick2[75]: - x[75] + r[75] <= 0
 mccormick2[76]: - x[76] + r[76] <= 0
 mccormick2[77]: - x[77] + r[77] <= 0
 mccormick2[78]: - x[78] + r[78] <= 0
 mccormick2[79]: - x[79] + r[79] <= 0
 mccormick2[80]: - x[80] + r[80] <= 0
 mccormick2[81]: - x[81] + r[81] <= 0
 mccormick2[82]: - x[82] + r[82] <= 0
 mccormick2[83]: - x[83] + r[83] <= 0
 mccormick2[84]: - x[84] + r[84] <= 0
 mccormick2[85]: - x[85] + r[85] <= 0
 mccormick2[86]: - x[86] + r[86] <= 0
 mccormick2[87]: - x[87] + r[87] <= 0
 mccormick2[88]: - x[88] + r[88] <= 0
 mccormick2[89]: - x[89] + r[89] <= 0
 mccormick2[90]: - x[90] + r[90] <= 0
 mccormick2[91]: - x[91] + r[91] <= 0
 mccormick2[92]: - x[92] + r[92] <= 0
 mccormick2[93]: - x[93] + r[93] <= 0
 mccormick2[94]: - x[94] + r[94] <= 0
 mccormick2[95]: - x[95] + r[95] <= 0
 mccormick2[96]: - x[96] + r[96] <= 0
 mccormick2[97]: - x[97] + r[97] <= 0
 mccormick2[98]: - x[98] + r[98] <= 0
 mccormick2[99]: - x[99] + r[99] <= 0
 mccormick2[100]: - x[100] + r[100] <= 0
 mccormick2[101]: - x[101] + r[101] <= 0
 mccormick2[102]: - x[102] + r[102] <= 0
 mccormick2[103]: - x[103] + r[103] <= 0
 mccormick2[104]: - x[104] + r[104] <= 0
 mccormick2[105]: - x[105] + r[105] <= 0
 mccormick2[106]: - x[106] + r[106] <= 0
 mccormick2[107]: - x[107] + r[107] <= 0
 mccormick2[108]: - x[108] + r[108] <= 0
 mccormick2[109]: - x[109] + r[109] <= 0
 mccormick2[110]: - x[110] + r[110] <= 0
 mccormick2[111]: - x[111] + r[111] <= 0
 mccormick2[112]: - x[112] + r[112] <= 0
 mccormick2[113]: - x[113] + r[113] <= 0
 mccormick2[114]: - x[114] + r[114] <= 0
 mccormick2[115]: - x[115] + r[115] <= 0
 mccormick2[116]: - x[116] + r[116] <= 0
 mccormick2[117]: - x[117] + r[117] <= 0
 mccormick2[118]: - x[118] + r[118] <= 0
 mccormick2[119]: - x[119] + r[119] <= 0
 mccormick2[120]: - x[120] + r[120] <= 0
 mccormick2[121]: - x[121] + r[121] <= 0
 mccormick2[122]: - x[122] + r[122] <= 0
 mccormick2[123]: - x[123] + r[123] <= 0
 mccormick2[124]: - x[124] + r[124] <= 0
 mccormick2[125]: - x[125] + r[125] <= 0
 mccormick2[126]: - x[126] + r[126] <= 0
 mccormick2[127]: - x[127] + r[127] <= 0
 mccormick2[128]: - x[128] + r[128] <= 0
 mccormick2[129]: - x[129] + r[129] <= 0
 mccormick2[130]: - x[130] + r[130] <= 0
 mccormick2[131]: - x[131] + r[131] <= 0
 mccormick2[132]: - x[132] + r[132] <= 0
 mccormick2[133]: - x[133] + r[133] <= 0
 mccormick2[134]: - x[134] + r[134] <= 0
 mccormick2[135]: - x[135] + r[135] <= 0
 mccormick2[136]: - x[136] + r[136] <= 0
 mccormick2[137]: - x[137] + r[137] <= 0
 mccormick2[138]: - x[138] + r[138] <= 0
 mccormick2[139]: - x[139] + r[139] <= 0
 mccormick2[140]: - x[140] + r[140] <= 0
 mccormick2[141]: - x[141] + r[141] <= 0
 mccormick2[142]: - x[142] + r[142] <= 0
 mccormick2[143]: - x[143] + r[143] <= 0
 mccormick2[144]: - x[144] + r[144] <= 0
 mccormick2[145]: - x[145] + r[145] <= 0
 mccormick2[146]: - x[146] + r[146] <= 0
 mccormick2[147]: - x[147] + r[147] <= 0
 mccormick2[148]: - x[148] + r[148] <= 0
 mccormick2[149]: - x[149] + r[149] <= 0
 mccormick3[0]: x[0] + u[0] - r[0] <= 1
 mccormick3[1]: x[1] + u[1] - r[1] <= 1
 mccormick3[2]: x[2] + u[2] - r[2] <= 1
 mccormick3[3]: x[3] + u[3] - r[3] <= 1
 mccormick3[4]: x[4] + u[4] - r[4] <= 1
 mccormick3[5]: x[5] + u[5] - r[5] <= 1
 mccormick3[6]: x[6] + u[6] - r[6] <= 1
 mccormick3[7]: x[7] + u[7] - r[7] <= 1
 mccormick3[8]: x[8] + u[8] - r[8] <= 1
 mccormick3[9]: x[9] + u[9] - r[9] <= 1
 mccormick3[10]: x[10] + u[10] - r[10] <= 1
 mccormick3[11]: x[11] + u[11] - r[11] <= 1
 mccormick3[12]: x[12] + u[12] - r[12] <= 1
 mccormick3[13]: x[13] + u[13] - r[13] <= 1
 mccormick3[14]: x[14] + u[14] - r[14] <= 1
 mccormick3[15]: x[15] + u[15] - r[15] <= 1
 mccormick3[16]: x[16] + u[16] - r[16] <= 1
 mccormick3[17]: x[17] + u[17] - r[17] <= 1
 mccormick3[18]: x[18] + u[18] - r[18] <= 1
 mccormick3[19]: x[19] + u[19] - r[19] <= 1
 mccormick3[20]: x[20] + u[20] - r[20] <= 1
 mccormick3[21]: x[21] + u[21] - r[21] <= 1
 mccormick3[22]: x[22] + u[22] - r[22] <= 1
 mccormick3[23]: x[23] + u[23] - r[23] <= 1
 mccormick3[24]: x[24] + u[24] - r[24] <= 1
 mccormick3[25]: x[25] + u[25] - r[25] <= 1
 mccormick3[26]: x[26] + u[26] - r[26] <= 1
 mccormick3[27]: x[27] + u[27] - r[27] <= 1
 mccormick3[28]: x[28] + u[28] - r[28] <= 1
 mccormick3[29]: x[29] + u[29] - r[29] <= 1
 mccormick3[30]: x[30] + u[30] - r[30] <= 1
 mccormick3[31]: x[31] + u[31] - r[31] <= 1
 mccormick3[32]: x[32] + u[32] - r[32] <= 1
 mccormick3[33]: x[33] + u[33] - r[33] <= 1
 mccormick3[34]: x[34] + u[34] - r[34] <= 1
 mccormick3[35]: x[35] + u[35] - r[35] <= 1
 mccormick3[36]: x[36] + u[36] - r[36] <= 1
 mccormick3[37]: x[37] + u[37] - r[37] <= 1
 mccormick3[38]: x[38] + u[38] - r[38] <= 1
 mccormick3[39]: x[39] + u[39] - r[39] <= 1
 mccormick3[40]: x[40] + u[40] - r[40] <= 1
 mccormick3[41]: x[41] + u[41] - r[41] <= 1
 mccormick3[42]: x[42] + u[42] - r[42] <= 1
 mccormick3[43]: x[43] + u[43] - r[43] <= 1
 mccormick3[44]: x[44] + u[44] - r[44] <= 1
 mccormick3[45]: x[45] + u[45] - r[45] <= 1
 mccormick3[46]: x[46] + u[46] - r[46] <= 1
 mccormick3[47]: x[47] + u[47] - r[47] <= 1
 mccormick3[48]: x[48] + u[48] - r[48] <= 1
 mccormick3[49]: x[49] + u[49] - r[49] <= 1
 mccormick3[50]: x[50] + u[50] - r[50] <= 1
 mccormick3[51]: x[51] + u[51] - r[51] <= 1
 mccormick3[52]: x[52] + u[52] - r[52] <= 1
 mccormick3[53]: x[53] + u[53] - r[53] <= 1
 mccormick3[54]: x[54] + u[54] - r[54] <= 1
 mccormick3[55]: x[55] + u[55] - r[55] <= 1
 mccormick3[56]: x[56] + u[56] - r[56] <= 1
 mccormick3[57]: x[57] + u[57] - r[57] <= 1
 mccormick3[58]: x[58] + u[58] - r[58] <= 1
 mccormick3[59]: x[59] + u[59] - r[59] <= 1
 mccormick3[60]: x[60] + u[60] - r[60] <= 1
 mccormick3[61]: x[61] + u[61] - r[61] <= 1
 mccormick3[62]: x[62] + u[62] - r[62] <= 1
 mccormick3[63]: x[63] + u[63] - r[63] <= 1
 mccormick3[64]: x[64] + u[64] - r[64] <= 1
 mccormick3[65]: x[65] + u[65] - r[65] <= 1
 mccormick3[66]: x[66] + u[66] - r[66] <= 1
 mccormick3[67]: x[67] + u[67] - r[67] <= 1
 mccormick3[68]: x[68] + u[68] - r[68] <= 1
 mccormick3[69]: x[69] + u[69] - r[69] <= 1
 mccormick3[70]: x[70] + u[70] - r[70] <= 1
 mccormick3[71]: x[71] + u[71] - r[71] <= 1
 mccormick3[72]: x[72] + u[72] - r[72] <= 1
 mccormick3[73]: x[73] + u[73] - r[73] <= 1
 mccormick3[74]: x[74] + u[74] - r[74] <= 1
 mccormick3[75]: x[75] + u[75] - r[75] <= 1
 mccormick3[76]: x[76] + u[76] - r[76] <= 1
 mccormick3[77]: x[77] + u[77] - r[77] <= 1
 mccormick3[78]: x[78] + u[78] - r[78] <= 1
 mccormick3[79]: x[79] + u[79] - r[79] <= 1
 mccormick3[80]: x[80] + u[80] - r[80] <= 1
 mccormick3[81]: x[81] + u[81] - r[81] <= 1
 mccormick3[82]: x[82] + u[82] - r[82] <= 1
 mccormick3[83]: x[83] + u[83] - r[83] <= 1
 mccormick3[84]: x[84] + u[84] - r[84] <= 1
 mccormick3[85]: x[85] + u[85] - r[85] <= 1
 mccormick3[86]: x[86] + u[86] - r[86] <= 1
 mccormick3[87]: x[87] + u[87] - r[87] <= 1
 mccormick3[88]: x[88] + u[88] - r[88] <= 1
 mccormick3[89]: x[89] + u[89] - r[89] <= 1
 mccormick3[90]: x[90] + u[90] - r[90] <= 1
 mccormick3[91]: x[91] + u[91] - r[91] <= 1
 mccormick3[92]: x[92] + u[92] - r[92] <= 1
 mccormick3[93]: x[93] + u[93] - r[93] <= 1
 mccormick3[94]: x[94] + u[94] - r[94] <= 1
 mccormick3[95]: x[95] + u[95] - r[95] <= 1
 mccormick3[96]: x[96] + u[96] - r[96] <= 1
 mccormick3[97]: x[97] + u[97] - r[97] <= 1
 mccormick3[98]: x[98] + u[98] - r[98] <= 1
 mccormick3[99]: x[99] + u[99] - r[99] <= 1
 mccormick3[100]: x[100] + u[100] - r[100] <= 1
 mccormick3[101]: x[101] + u[101] - r[101] <= 1
 mccormick3[102]: x[102] + u[102] - r[102] <= 1
 mccormick3[103]: x[103] + u[103] - r[103] <= 1
 mccormick3[104]: x[104] + u[104] - r[104] <= 1
 mccormick3[105]: x[105] + u[105] - r[105] <= 1
 mccormick3[106]: x[106] + u[106] - r[106] <= 1
 mccormick3[107]: x[107] + u[107] - r[107] <= 1
 mccormick3[108]: x[108] + u[108] - r[108] <= 1
 mccormick3[109]: x[109] + u[109] - r[109] <= 1
 mccormick3[110]: x[110] + u[110] - r[110] <= 1
 mccormick3[111]: x[111] + u[111] - r[111] <= 1
 mccormick3[112]: x[112] + u[112] - r[112] <= 1
 mccormick3[113]: x[113] + u[113] - r[113] <= 1
 mccormick3[114]: x[114] + u[114] - r[114] <= 1
 mccormick3[115]: x[115] + u[115] - r[115] <= 1
 mccormick3[116]: x[116] + u[116] - r[116] <= 1
 mccormick3[117]: x[117] + u[117] - r[117] <= 1
 mccormick3[118]: x[118] + u[118] - r[118] <= 1
 mccormick3[119]: x[119] + u[119] - r[119] <= 1
 mccormick3[120]: x[120] + u[120] - r[120] <= 1
 mccormick3[121]: x[121] + u[121] - r[121] <= 1
 mccormick3[122]: x[122] + u[122] - r[122] <= 1
 mccormick3[123]: x[123] + u[123] - r[123] <= 1
 mccormick3[124]: x[124] + u[124] - r[124] <= 1
 mccormick3[125]: x[125] + u[125] - r[125] <= 1
 mccormick3[126]: x[126] + u[126] - r[126] <= 1
 mccormick3[127]: x[127] + u[127] - r[127] <= 1
 mccormick3[128]: x[128] + u[128] - r[128] <= 1
 mccormick3[129]: x[129] + u[129] - r[129] <= 1
 mccormick3[130]: x[130] + u[130] - r[130] <= 1
 mccormick3[131]: x[131] + u[131] - r[131] <= 1
 mccormick3[132]: x[132] + u[132] - r[132] <= 1
 mccormick3[133]: x[133] + u[133] - r[133] <= 1
 mccormick3[134]: x[134] + u[134] - r[134] <= 1
 mccormick3[135]: x[135] + u[135] - r[135] <= 1
 mccormick3[136]: x[136] + u[136] - r[136] <= 1
 mccormick3[137]: x[137] + u[137] - r[137] <= 1
 mccormick3[138]: x[138] + u[138] - r[138] <= 1
 mccormick3[139]: x[139] + u[139] - r[139] <= 1
 mccormick3[140]: x[140] + u[140] - r[140] <= 1
 mccormick3[141]: x[141] + u[141] - r[141] <= 1
 mccormick3[142]: x[142] + u[142] - r[142] <= 1
 mccormick3[143]: x[143] + u[143] - r[143] <= 1
 mccormick3[144]: x[144] + u[144] - r[144] <= 1
 mccormick3[145]: x[145] + u[145] - r[145] <= 1
 mccormick3[146]: x[146] + u[146] - r[146] <= 1
 mccormick3[147]: x[147] + u[147] - r[147] <= 1
 mccormick3[148]: x[148] + u[148] - r[148] <= 1
 mccormick3[149]: x[149] + u[149] - r[149] <= 1
Bounds
Binaries
 x[0] x[1] x[2] x[3] x[4] x[5] x[6] x[7] x[8] x[9] x[10] x[11] x[12] x[13]
 x[14] x[15] x[16] x[17] x[18] x[19] x[20] x[21] x[22] x[23] x[24] x[25]
 x[26] x[27] x[28] x[29] x[30] x[31] x[32] x[33] x[34] x[35] x[36] x[37]
 x[38] x[39] x[40] x[41] x[42] x[43] x[44] x[45] x[46] x[47] x[48] x[49]
 x[50] x[51] x[52] x[53] x[54] x[55] x[56] x[57] x[58] x[59] x[60] x[61]
 x[62] x[63] x[64] x[65] x[66] x[67] x[68] x[69] x[70] x[71] x[72] x[73]
 x[74] x[75] x[76] x[77] x[78] x[79] x[80] x[81] x[82] x[83] x[84] x[85]
 x[86] x[87] x[88] x[89] x[90] x[91] x[92] x[93] x[94] x[95] x[96] x[97]
 x[98] x[99] x[100] x[101] x[102] x[103] x[104] x[105] x[106] x[107] x[108]
 x[109] x[110] x[111] x[112] x[113] x[114] x[115] x[116] x[117] x[118]
 x[119] x[120] x[121] x[122] x[123] x[124] x[125] x[126] x[127] x[128]
 x[129] x[130] x[131] x[132] x[133] x[134] x[135] x[136] x[137] x[138]
 x[139] x[140] x[141] x[142] x[143] x[144] x[145] x[146] x[147] x[148]
 x[149] u[0] u[1] u[2] u[3] u[4] u[5] u[6] u[7] u[8] u[9] u[10] u[11] u[12]
 u[13] u[14] u[15] u[16] u[17] u[18] u[19] u[20] u[21] u[22] u[23] u[24]
 u[25] u[26] u[27] u[28] u[29] u[30] u[31] u[32] u[33] u[34] u[35] u[36]
 u[37] u[38] u[39] u[40] u[41] u[42] u[43] u[44] u[45] u[46] u[47] u[48]
 u[49] u[50] u[51] u[52] u[53] u[54] u[55] u[56] u[57] u[58] u[59] u[60]
 u[61] u[62] u[63] u[64] u[65] u[66] u[67] u[68] u[69] u[70] u[71] u[72]
 u[73] u[74] u[75] u[76] u[77] u[78] u[79] u[80] u[81] u[82] u[83] u[84]
 u[85] u[86] u[87] u[88] u[89] u[90] u[91] u[92] u[93] u[94] u[95] u[96]
 u[97] u[98] u[99] u[100] u[101] u[102] u[103] u[104] u[105] u[106] u[107]
 u[108] u[109] u[110] u[111] u[112] u[113] u[114] u[115] u[116] u[117]
 u[118] u[119] u[120] u[121] u[122] u[123] u[124] u[125] u[126] u[127]
 u[128] u[129] u[130] u[131] u[132] u[133] u[134] u[135] u[136] u[137]
 u[138] u[139] u[140] u[141] u[142] u[143] u[144] u[145] u[146] u[147]
 u[148] u[149] r[0] r[1] r[2] r[3] r[4] r[5] r[6] r[7] r[8] r[9] r[10]
 r[11] r[12] r[13] r[14] r[15] r[16] r[17] r[18] r[19] r[20] r[21] r[22]
 r[23] r[24] r[25] r[26] r[27] r[28] r[29] r[30] r[31] r[32] r[33] r[34]
 r[35] r[36] r[37] r[38] r[39] r[40] r[41] r[42] r[43] r[44] r[45] r[46]
 r[47] r[48] r[49] r[50] r[51] r[52] r[53] r[54] r[55] r[56] r[57] r[58]
 r[59] r[60] r[61] r[62] r[63] r[64] r[65] r[66] r[67] r[68] r[69] r[70]
 r[71] r[72] r[73] r[74] r[75] r[76] r[77] r[78] r[79] r[80] r[81] r[82]
 r[83] r[84] r[85] r[86] r[87] r[88] r[89] r[90] r[91] r[92] r[93] r[94]
 r[95] r[96] r[97] r[98] r[99] r[100] r[101] r[102] r[103] r[104] r[105]
 r[106] r[107] r[108] r[109] r[110] r[111] r[112] r[113] r[114] r[115]
 r[116] r[117] r[118] r[119] r[120] r[121] r[122] r[123] r[124] r[125]
 r[126] r[127] r[128] r[129] r[130] r[131] r[132] r[133] r[134] r[135]
 r[136] r[137] r[138] r[139] r[140] r[141] r[142] r[143] r[144] r[145]
 r[146] r[147] r[148] r[149]
End
