instances/knapsack/discrete_knapsack_uncertainty/knapsack_150_17.kp
52048
150
739

51 5.1 77
47 4.7 6
53 5.3 95
22 2.2 91
63 6.3 13
37 3.7 92
100 10.0 17
47 4.7 31
76 7.6 30
21 2.1 2
63 6.3 10
78 7.8 94
23 2.3 86
27 2.7 45
88 8.8 94
28 2.8 31
72 7.2 93
27 2.7 93
72 7.2 70
41 4.1 97
76 7.6 73
27 2.7 2
35 3.5 23
62 6.2 47
72 7.2 72
35 3.5 82
77 7.7 47
63 6.3 47
89 8.9 89
42 4.2 56
89 8.9 96
19 1.9 39
11 1.1 19
16 1.6 22
39 3.9 79
40 4.0 80
71 7.1 92
12 1.2 66
71 7.1 78
2 0.2 71
38 3.8 55
65 6.5 49
89 8.9 25
37 3.7 62
42 4.2 18
50 5.0 42
49 4.9 8
9 0.9 76
66 6.6 60
99 9.9 53
78 7.8 42
67 6.7 30
56 5.6 18
95 9.5 100
24 2.4 91
7 0.7 25
88 8.8 70
14 1.4 99
91 9.1 7
1 0.1 90
100 10.0 47
70 7.0 69
71 7.1 81
90 9.0 41
23 2.3 14
15 1.5 8
68 6.8 44
30 3.0 77
71 7.1 68
29 2.9 69
29 2.9 100
57 5.7 50
73 7.3 48
90 9.0 29
7 0.7 74
68 6.8 33
2 0.2 17
6 0.6 68
24 2.4 55
62 6.2 55
53 5.3 6
9 0.9 93
86 8.6 77
17 1.7 85
69 6.9 100
25 2.5 12
99 9.9 33
91 9.1 38
57 5.7 67
78 7.8 66
52 5.2 81
76 7.6 53
40 4.0 41
67 6.7 44
63 6.3 63
32 3.2 26
28 2.8 92
64 6.4 7
3 0.3 40
99 9.9 20
64 6.4 32
35 3.5 97
61 6.1 78
99 9.9 33
64 6.4 50
1 0.1 18
58 5.8 69
70 7.0 68
2 0.2 61
8 0.8 40
74 7.4 33
94 9.4 69
92 9.2 49
4 0.4 27
32 3.2 17
74 7.4 32
66 6.6 34
68 6.8 84
88 8.8 81
12 1.2 22
31 3.1 21
48 4.8 30
19 1.9 45
58 5.8 82
84 8.4 35
38 3.8 92
39 3.9 48
31 3.1 21
82 8.2 55
46 4.6 32
17 1.7 62
76 7.6 6
6 0.6 23
91 9.1 58
24 2.4 61
77 7.7 11
68 6.8 20
18 1.8 1
93 9.3 74
3 0.3 9
34 3.4 29
28 2.8 64
58 5.8 5
98 9.8 15
48 4.8 75
85 8.5 2
85 8.5 80
18 1.8 50
88 8.8 36
61 6.1 78

39074
779

[1.361923286292689 4.543274491839775 4.350082574307801 3.109337597129742 3.661923241938593 3.696534395414851 3.8667956350669943 4.917986265516008 1.3261988976146613 1.5936978027945388 3.437894652613109 4.183818812288425 0.8331462369300406 5.07173601986324 2.3160933387593317 3.4339838105048193 4.166712534288641 4.052752042190396 2.6461774629261074 1.3744662741637916 2.482538642554512 3.158072093742753 2.939417158119276 0.9539974977414275 4.241468639038012 2.8453790945742186 0.4552774025472552 3.2634263205297147 5.024315089942153 4.2375506920523485 5.009778442611194 0.37308632277960113 4.137879933129374 1.8935440437074165 2.703527637025113 4.002987411357233 1.0059968560194732 2.926716190558228 2.48689648730178 3.8114392132587227 4.4447108196435305 2.7866151516908544 0.5768792362463893 4.492033085739218 2.370748854965091 1.7549496639623006 3.2891089827981204 3.1512661506942736 0.7970272408522843 3.96130450648637 2.4470100482158905 1.5147456163151254 2.092872803835401 2.970985135591856 3.840061865121702 2.647604238341952 0.9105926510968532 0.9084921607904428 0.13769406278644736 1.6752529243093204 3.9282118306775087 4.713610736359014 1.1024621187216506 2.2811359496936627 5.001075222719355 2.838358658727735 5.029788887480187 2.9609044644494884 2.949542757150708 4.755940332299138 1.9781763255493776 1.087599331876301 4.956582976761091 4.053448572726349 0.3162883224550981 0.054696407672258675 1.1193287098654432 1.6660637217828471 4.209599420483719 4.841324691226755 2.3697584661283493 1.8540564704716544 2.918810193614922 4.203540090548752 3.447478195258561 3.8004033659707863 2.9610973201695643 0.2411272722866821 2.9076217820649797 1.969087692018428 2.7965471179955474 4.782505766754132 0.25296883941572235 4.747555882516977 4.187694520585841 0.7689410994152521 4.053157827282992 0.7470494595043456 0.9847806282371695 4.444335067776515 0.5178207729912117 2.676738310524145 1.7440566297506515 2.294518239940377 3.649114634812225 5.102554928007049 3.631932965406263 3.010010924983522 3.0631819084259777 1.8801034987236813 4.902223597353026 2.300581898068391 2.921191151566824 3.033605986894347 1.8548813555635348 1.2977289494402813 4.66648711360166 0.49673652435383603 2.8274693969314355 4.349484955619455 4.5776499424255075 2.6127199090336166 4.5305331357836565 1.1993069744715301 4.222646402798537 0.25395711530725085 0.742422679686454 4.904866067852517 2.6592543543131817 2.98444033517144 4.504530007865585 0.019240101637905314 3.355845207753173 1.3789462637654348 3.9876491553498146 3.9800103735320227 0.6105020604162565 3.7145873801333793 3.1855981056799245 5.1490314049491355 1.4168157990668244 4.9887707838594055 3.554428541919875 2.717656085236781 3.0903941412906915 2.9204952967900586 2.5639372197515558 2.0581305335354005 2.855696990908335 3.2196106343252318]

[32 84 42 87 44 82 77 52 77 98 84 75 20 44 53 81 13 84 57 86 41 96 96 75 37 52 10 56 78 87 10 76 8 65 84 81 20 89 32 15 87 42 54 14 87 47 14 58 39 72 79 48 65 52 9 92 33 23 80 70 57 63 52 99 76 68 13 3 36 66 70 50 18 31 40 21 15 31 77 99 34 82 87 98 50 62 100 24 38 67 13 93 41 76 100 17 85 17 20 8 85 84 38 68 61 2 11 51 23 97 67 3 77 73 33 35 71 97 73 9 68 49 36 35 37 19 88 76 11 95 10 89 11 24 17 70 93 63 94 100 95 61 79 59 13 70 10 27 33 54]
